c n orig vars 122
p cnf 555 1798
123 -1 0
123 -2 0
-123 1 2 0
124 -3 0
124 -4 0
-124 3 4 0
125 -5 0
125 -6 0
-125 5 6 0
126 -7 0
126 -8 0
-126 7 8 0
127 -9 0
127 -10 0
-127 9 10 0
128 -11 0
128 -12 0
-128 11 12 0
129 -13 0
129 -14 0
-129 13 14 0
130 -15 0
130 -16 0
-130 15 16 0
131 -17 0
131 -18 0
-131 17 18 0
132 -19 0
132 -20 0
-132 19 20 0
133 -21 0
133 -22 0
-133 21 22 0
134 -23 0
134 -24 0
-134 23 24 0
135 -25 0
135 -26 0
-135 25 26 0
136 -27 0
136 -28 0
-136 27 28 0
137 -29 0
137 -30 0
-137 29 30 0
138 -31 0
138 -32 0
-138 31 32 0
-139 123 0
-139 124 0
-139 125 0
-139 126 0
-139 127 0
-139 128 0
-139 129 0
-139 130 0
-139 131 0
-139 132 0
-139 133 0
-139 134 0
-139 135 0
-139 136 0
-139 137 0
-139 138 0
139 -123 -124 -125 -126 -127 -128 -129 -130 -131 -132 -133 -134 -135 -136 -137 -138 0
-139 0
140 -33 0
140 -43 0
140 -53 0
140 -63 0
140 -73 0
140 -83 0
140 -93 0
140 -103 0
140 -113 0
-140 33 43 53 63 73 83 93 103 113 0
141 -34 0
141 -44 0
141 -54 0
141 -64 0
141 -74 0
141 -84 0
141 -94 0
141 -104 0
141 -114 0
-141 34 44 54 64 74 84 94 104 114 0
142 -35 0
142 -45 0
142 -55 0
142 -65 0
142 -75 0
142 -85 0
142 -95 0
142 -105 0
142 -115 0
-142 35 45 55 65 75 85 95 105 115 0
143 -36 0
143 -46 0
143 -56 0
143 -66 0
143 -76 0
143 -86 0
143 -96 0
143 -106 0
143 -116 0
-143 36 46 56 66 76 86 96 106 116 0
144 -37 0
144 -47 0
144 -57 0
144 -67 0
144 -77 0
144 -87 0
144 -97 0
144 -107 0
144 -117 0
-144 37 47 57 67 77 87 97 107 117 0
145 -38 0
145 -48 0
145 -58 0
145 -68 0
145 -78 0
145 -88 0
145 -98 0
145 -108 0
145 -118 0
-145 38 48 58 68 78 88 98 108 118 0
146 -39 0
146 -49 0
146 -59 0
146 -69 0
146 -79 0
146 -89 0
146 -99 0
146 -109 0
146 -119 0
-146 39 49 59 69 79 89 99 109 119 0
147 -40 0
147 -50 0
147 -60 0
147 -70 0
147 -80 0
147 -90 0
147 -100 0
147 -110 0
147 -120 0
-147 40 50 60 70 80 90 100 110 120 0
148 -41 0
148 -51 0
148 -61 0
148 -71 0
148 -81 0
148 -91 0
148 -101 0
148 -111 0
148 -121 0
-148 41 51 61 71 81 91 101 111 121 0
149 -42 0
149 -52 0
149 -62 0
149 -72 0
149 -82 0
149 -92 0
149 -102 0
149 -112 0
149 -122 0
-149 42 52 62 72 82 92 102 112 122 0
150 33 0
150 34 0
-150 -33 -34 0
151 33 0
151 35 0
-151 -33 -35 0
152 33 0
152 36 0
-152 -33 -36 0
153 33 0
153 37 0
-153 -33 -37 0
154 33 0
154 38 0
-154 -33 -38 0
155 33 0
155 39 0
-155 -33 -39 0
156 33 0
156 40 0
-156 -33 -40 0
157 33 0
157 41 0
-157 -33 -41 0
158 33 0
158 42 0
-158 -33 -42 0
159 34 0
159 35 0
-159 -34 -35 0
160 34 0
160 36 0
-160 -34 -36 0
161 34 0
161 37 0
-161 -34 -37 0
162 34 0
162 38 0
-162 -34 -38 0
163 34 0
163 39 0
-163 -34 -39 0
164 34 0
164 40 0
-164 -34 -40 0
165 34 0
165 41 0
-165 -34 -41 0
166 34 0
166 42 0
-166 -34 -42 0
167 35 0
167 36 0
-167 -35 -36 0
168 35 0
168 37 0
-168 -35 -37 0
169 35 0
169 38 0
-169 -35 -38 0
170 35 0
170 39 0
-170 -35 -39 0
171 35 0
171 40 0
-171 -35 -40 0
172 35 0
172 41 0
-172 -35 -41 0
173 35 0
173 42 0
-173 -35 -42 0
174 36 0
174 37 0
-174 -36 -37 0
175 36 0
175 38 0
-175 -36 -38 0
176 36 0
176 39 0
-176 -36 -39 0
177 36 0
177 40 0
-177 -36 -40 0
178 36 0
178 41 0
-178 -36 -41 0
179 36 0
179 42 0
-179 -36 -42 0
180 37 0
180 38 0
-180 -37 -38 0
181 37 0
181 39 0
-181 -37 -39 0
182 37 0
182 40 0
-182 -37 -40 0
183 37 0
183 41 0
-183 -37 -41 0
184 37 0
184 42 0
-184 -37 -42 0
185 38 0
185 39 0
-185 -38 -39 0
186 38 0
186 40 0
-186 -38 -40 0
187 38 0
187 41 0
-187 -38 -41 0
188 38 0
188 42 0
-188 -38 -42 0
189 39 0
189 40 0
-189 -39 -40 0
190 39 0
190 41 0
-190 -39 -41 0
191 39 0
191 42 0
-191 -39 -42 0
192 40 0
192 41 0
-192 -40 -41 0
193 40 0
193 42 0
-193 -40 -42 0
194 41 0
194 42 0
-194 -41 -42 0
195 43 0
195 44 0
-195 -43 -44 0
196 43 0
196 45 0
-196 -43 -45 0
197 43 0
197 46 0
-197 -43 -46 0
198 43 0
198 47 0
-198 -43 -47 0
199 43 0
199 48 0
-199 -43 -48 0
200 43 0
200 49 0
-200 -43 -49 0
201 43 0
201 50 0
-201 -43 -50 0
202 43 0
202 51 0
-202 -43 -51 0
203 43 0
203 52 0
-203 -43 -52 0
204 44 0
204 45 0
-204 -44 -45 0
205 44 0
205 46 0
-205 -44 -46 0
206 44 0
206 47 0
-206 -44 -47 0
207 44 0
207 48 0
-207 -44 -48 0
208 44 0
208 49 0
-208 -44 -49 0
209 44 0
209 50 0
-209 -44 -50 0
210 44 0
210 51 0
-210 -44 -51 0
211 44 0
211 52 0
-211 -44 -52 0
212 45 0
212 46 0
-212 -45 -46 0
213 45 0
213 47 0
-213 -45 -47 0
214 45 0
214 48 0
-214 -45 -48 0
215 45 0
215 49 0
-215 -45 -49 0
216 45 0
216 50 0
-216 -45 -50 0
217 45 0
217 51 0
-217 -45 -51 0
218 45 0
218 52 0
-218 -45 -52 0
219 46 0
219 47 0
-219 -46 -47 0
220 46 0
220 48 0
-220 -46 -48 0
221 46 0
221 49 0
-221 -46 -49 0
222 46 0
222 50 0
-222 -46 -50 0
223 46 0
223 51 0
-223 -46 -51 0
224 46 0
224 52 0
-224 -46 -52 0
225 47 0
225 48 0
-225 -47 -48 0
226 47 0
226 49 0
-226 -47 -49 0
227 47 0
227 50 0
-227 -47 -50 0
228 47 0
228 51 0
-228 -47 -51 0
229 47 0
229 52 0
-229 -47 -52 0
230 48 0
230 49 0
-230 -48 -49 0
231 48 0
231 50 0
-231 -48 -50 0
232 48 0
232 51 0
-232 -48 -51 0
233 48 0
233 52 0
-233 -48 -52 0
234 49 0
234 50 0
-234 -49 -50 0
235 49 0
235 51 0
-235 -49 -51 0
236 49 0
236 52 0
-236 -49 -52 0
237 50 0
237 51 0
-237 -50 -51 0
238 50 0
238 52 0
-238 -50 -52 0
239 51 0
239 52 0
-239 -51 -52 0
240 53 0
240 54 0
-240 -53 -54 0
241 53 0
241 55 0
-241 -53 -55 0
242 53 0
242 56 0
-242 -53 -56 0
243 53 0
243 57 0
-243 -53 -57 0
244 53 0
244 58 0
-244 -53 -58 0
245 53 0
245 59 0
-245 -53 -59 0
246 53 0
246 60 0
-246 -53 -60 0
247 53 0
247 61 0
-247 -53 -61 0
248 53 0
248 62 0
-248 -53 -62 0
249 54 0
249 55 0
-249 -54 -55 0
250 54 0
250 56 0
-250 -54 -56 0
251 54 0
251 57 0
-251 -54 -57 0
252 54 0
252 58 0
-252 -54 -58 0
253 54 0
253 59 0
-253 -54 -59 0
254 54 0
254 60 0
-254 -54 -60 0
255 54 0
255 61 0
-255 -54 -61 0
256 54 0
256 62 0
-256 -54 -62 0
257 55 0
257 56 0
-257 -55 -56 0
258 55 0
258 57 0
-258 -55 -57 0
259 55 0
259 58 0
-259 -55 -58 0
260 55 0
260 59 0
-260 -55 -59 0
261 55 0
261 60 0
-261 -55 -60 0
262 55 0
262 61 0
-262 -55 -61 0
263 55 0
263 62 0
-263 -55 -62 0
264 56 0
264 57 0
-264 -56 -57 0
265 56 0
265 58 0
-265 -56 -58 0
266 56 0
266 59 0
-266 -56 -59 0
267 56 0
267 60 0
-267 -56 -60 0
268 56 0
268 61 0
-268 -56 -61 0
269 56 0
269 62 0
-269 -56 -62 0
270 57 0
270 58 0
-270 -57 -58 0
271 57 0
271 59 0
-271 -57 -59 0
272 57 0
272 60 0
-272 -57 -60 0
273 57 0
273 61 0
-273 -57 -61 0
274 57 0
274 62 0
-274 -57 -62 0
275 58 0
275 59 0
-275 -58 -59 0
276 58 0
276 60 0
-276 -58 -60 0
277 58 0
277 61 0
-277 -58 -61 0
278 58 0
278 62 0
-278 -58 -62 0
279 59 0
279 60 0
-279 -59 -60 0
280 59 0
280 61 0
-280 -59 -61 0
281 59 0
281 62 0
-281 -59 -62 0
282 60 0
282 61 0
-282 -60 -61 0
283 60 0
283 62 0
-283 -60 -62 0
284 61 0
284 62 0
-284 -61 -62 0
285 63 0
285 64 0
-285 -63 -64 0
286 63 0
286 65 0
-286 -63 -65 0
287 63 0
287 66 0
-287 -63 -66 0
288 63 0
288 67 0
-288 -63 -67 0
289 63 0
289 68 0
-289 -63 -68 0
290 63 0
290 69 0
-290 -63 -69 0
291 63 0
291 70 0
-291 -63 -70 0
292 63 0
292 71 0
-292 -63 -71 0
293 63 0
293 72 0
-293 -63 -72 0
294 64 0
294 65 0
-294 -64 -65 0
295 64 0
295 66 0
-295 -64 -66 0
296 64 0
296 67 0
-296 -64 -67 0
297 64 0
297 68 0
-297 -64 -68 0
298 64 0
298 69 0
-298 -64 -69 0
299 64 0
299 70 0
-299 -64 -70 0
300 64 0
300 71 0
-300 -64 -71 0
301 64 0
301 72 0
-301 -64 -72 0
302 65 0
302 66 0
-302 -65 -66 0
303 65 0
303 67 0
-303 -65 -67 0
304 65 0
304 68 0
-304 -65 -68 0
305 65 0
305 69 0
-305 -65 -69 0
306 65 0
306 70 0
-306 -65 -70 0
307 65 0
307 71 0
-307 -65 -71 0
308 65 0
308 72 0
-308 -65 -72 0
309 66 0
309 67 0
-309 -66 -67 0
310 66 0
310 68 0
-310 -66 -68 0
311 66 0
311 69 0
-311 -66 -69 0
312 66 0
312 70 0
-312 -66 -70 0
313 66 0
313 71 0
-313 -66 -71 0
314 66 0
314 72 0
-314 -66 -72 0
315 67 0
315 68 0
-315 -67 -68 0
316 67 0
316 69 0
-316 -67 -69 0
317 67 0
317 70 0
-317 -67 -70 0
318 67 0
318 71 0
-318 -67 -71 0
319 67 0
319 72 0
-319 -67 -72 0
320 68 0
320 69 0
-320 -68 -69 0
321 68 0
321 70 0
-321 -68 -70 0
322 68 0
322 71 0
-322 -68 -71 0
323 68 0
323 72 0
-323 -68 -72 0
324 69 0
324 70 0
-324 -69 -70 0
325 69 0
325 71 0
-325 -69 -71 0
326 69 0
326 72 0
-326 -69 -72 0
327 70 0
327 71 0
-327 -70 -71 0
328 70 0
328 72 0
-328 -70 -72 0
329 71 0
329 72 0
-329 -71 -72 0
330 73 0
330 74 0
-330 -73 -74 0
331 73 0
331 75 0
-331 -73 -75 0
332 73 0
332 76 0
-332 -73 -76 0
333 73 0
333 77 0
-333 -73 -77 0
334 73 0
334 78 0
-334 -73 -78 0
335 73 0
335 79 0
-335 -73 -79 0
336 73 0
336 80 0
-336 -73 -80 0
337 73 0
337 81 0
-337 -73 -81 0
338 73 0
338 82 0
-338 -73 -82 0
339 74 0
339 75 0
-339 -74 -75 0
340 74 0
340 76 0
-340 -74 -76 0
341 74 0
341 77 0
-341 -74 -77 0
342 74 0
342 78 0
-342 -74 -78 0
343 74 0
343 79 0
-343 -74 -79 0
344 74 0
344 80 0
-344 -74 -80 0
345 74 0
345 81 0
-345 -74 -81 0
346 74 0
346 82 0
-346 -74 -82 0
347 75 0
347 76 0
-347 -75 -76 0
348 75 0
348 77 0
-348 -75 -77 0
349 75 0
349 78 0
-349 -75 -78 0
350 75 0
350 79 0
-350 -75 -79 0
351 75 0
351 80 0
-351 -75 -80 0
352 75 0
352 81 0
-352 -75 -81 0
353 75 0
353 82 0
-353 -75 -82 0
354 76 0
354 77 0
-354 -76 -77 0
355 76 0
355 78 0
-355 -76 -78 0
356 76 0
356 79 0
-356 -76 -79 0
357 76 0
357 80 0
-357 -76 -80 0
358 76 0
358 81 0
-358 -76 -81 0
359 76 0
359 82 0
-359 -76 -82 0
360 77 0
360 78 0
-360 -77 -78 0
361 77 0
361 79 0
-361 -77 -79 0
362 77 0
362 80 0
-362 -77 -80 0
363 77 0
363 81 0
-363 -77 -81 0
364 77 0
364 82 0
-364 -77 -82 0
365 78 0
365 79 0
-365 -78 -79 0
366 78 0
366 80 0
-366 -78 -80 0
367 78 0
367 81 0
-367 -78 -81 0
368 78 0
368 82 0
-368 -78 -82 0
369 79 0
369 80 0
-369 -79 -80 0
370 79 0
370 81 0
-370 -79 -81 0
371 79 0
371 82 0
-371 -79 -82 0
372 80 0
372 81 0
-372 -80 -81 0
373 80 0
373 82 0
-373 -80 -82 0
374 81 0
374 82 0
-374 -81 -82 0
375 83 0
375 84 0
-375 -83 -84 0
376 83 0
376 85 0
-376 -83 -85 0
377 83 0
377 86 0
-377 -83 -86 0
378 83 0
378 87 0
-378 -83 -87 0
379 83 0
379 88 0
-379 -83 -88 0
380 83 0
380 89 0
-380 -83 -89 0
381 83 0
381 90 0
-381 -83 -90 0
382 83 0
382 91 0
-382 -83 -91 0
383 83 0
383 92 0
-383 -83 -92 0
384 84 0
384 85 0
-384 -84 -85 0
385 84 0
385 86 0
-385 -84 -86 0
386 84 0
386 87 0
-386 -84 -87 0
387 84 0
387 88 0
-387 -84 -88 0
388 84 0
388 89 0
-388 -84 -89 0
389 84 0
389 90 0
-389 -84 -90 0
390 84 0
390 91 0
-390 -84 -91 0
391 84 0
391 92 0
-391 -84 -92 0
392 85 0
392 86 0
-392 -85 -86 0
393 85 0
393 87 0
-393 -85 -87 0
394 85 0
394 88 0
-394 -85 -88 0
395 85 0
395 89 0
-395 -85 -89 0
396 85 0
396 90 0
-396 -85 -90 0
397 85 0
397 91 0
-397 -85 -91 0
398 85 0
398 92 0
-398 -85 -92 0
399 86 0
399 87 0
-399 -86 -87 0
400 86 0
400 88 0
-400 -86 -88 0
401 86 0
401 89 0
-401 -86 -89 0
402 86 0
402 90 0
-402 -86 -90 0
403 86 0
403 91 0
-403 -86 -91 0
404 86 0
404 92 0
-404 -86 -92 0
405 87 0
405 88 0
-405 -87 -88 0
406 87 0
406 89 0
-406 -87 -89 0
407 87 0
407 90 0
-407 -87 -90 0
408 87 0
408 91 0
-408 -87 -91 0
409 87 0
409 92 0
-409 -87 -92 0
410 88 0
410 89 0
-410 -88 -89 0
411 88 0
411 90 0
-411 -88 -90 0
412 88 0
412 91 0
-412 -88 -91 0
413 88 0
413 92 0
-413 -88 -92 0
414 89 0
414 90 0
-414 -89 -90 0
415 89 0
415 91 0
-415 -89 -91 0
416 89 0
416 92 0
-416 -89 -92 0
417 90 0
417 91 0
-417 -90 -91 0
418 90 0
418 92 0
-418 -90 -92 0
419 91 0
419 92 0
-419 -91 -92 0
420 93 0
420 94 0
-420 -93 -94 0
421 93 0
421 95 0
-421 -93 -95 0
422 93 0
422 96 0
-422 -93 -96 0
423 93 0
423 97 0
-423 -93 -97 0
424 93 0
424 98 0
-424 -93 -98 0
425 93 0
425 99 0
-425 -93 -99 0
426 93 0
426 100 0
-426 -93 -100 0
427 93 0
427 101 0
-427 -93 -101 0
428 93 0
428 102 0
-428 -93 -102 0
429 94 0
429 95 0
-429 -94 -95 0
430 94 0
430 96 0
-430 -94 -96 0
431 94 0
431 97 0
-431 -94 -97 0
432 94 0
432 98 0
-432 -94 -98 0
433 94 0
433 99 0
-433 -94 -99 0
434 94 0
434 100 0
-434 -94 -100 0
435 94 0
435 101 0
-435 -94 -101 0
436 94 0
436 102 0
-436 -94 -102 0
437 95 0
437 96 0
-437 -95 -96 0
438 95 0
438 97 0
-438 -95 -97 0
439 95 0
439 98 0
-439 -95 -98 0
440 95 0
440 99 0
-440 -95 -99 0
441 95 0
441 100 0
-441 -95 -100 0
442 95 0
442 101 0
-442 -95 -101 0
443 95 0
443 102 0
-443 -95 -102 0
444 96 0
444 97 0
-444 -96 -97 0
445 96 0
445 98 0
-445 -96 -98 0
446 96 0
446 99 0
-446 -96 -99 0
447 96 0
447 100 0
-447 -96 -100 0
448 96 0
448 101 0
-448 -96 -101 0
449 96 0
449 102 0
-449 -96 -102 0
450 97 0
450 98 0
-450 -97 -98 0
451 97 0
451 99 0
-451 -97 -99 0
452 97 0
452 100 0
-452 -97 -100 0
453 97 0
453 101 0
-453 -97 -101 0
454 97 0
454 102 0
-454 -97 -102 0
455 98 0
455 99 0
-455 -98 -99 0
456 98 0
456 100 0
-456 -98 -100 0
457 98 0
457 101 0
-457 -98 -101 0
458 98 0
458 102 0
-458 -98 -102 0
459 99 0
459 100 0
-459 -99 -100 0
460 99 0
460 101 0
-460 -99 -101 0
461 99 0
461 102 0
-461 -99 -102 0
462 100 0
462 101 0
-462 -100 -101 0
463 100 0
463 102 0
-463 -100 -102 0
464 101 0
464 102 0
-464 -101 -102 0
465 103 0
465 104 0
-465 -103 -104 0
466 103 0
466 105 0
-466 -103 -105 0
467 103 0
467 106 0
-467 -103 -106 0
468 103 0
468 107 0
-468 -103 -107 0
469 103 0
469 108 0
-469 -103 -108 0
470 103 0
470 109 0
-470 -103 -109 0
471 103 0
471 110 0
-471 -103 -110 0
472 103 0
472 111 0
-472 -103 -111 0
473 103 0
473 112 0
-473 -103 -112 0
474 104 0
474 105 0
-474 -104 -105 0
475 104 0
475 106 0
-475 -104 -106 0
476 104 0
476 107 0
-476 -104 -107 0
477 104 0
477 108 0
-477 -104 -108 0
478 104 0
478 109 0
-478 -104 -109 0
479 104 0
479 110 0
-479 -104 -110 0
480 104 0
480 111 0
-480 -104 -111 0
481 104 0
481 112 0
-481 -104 -112 0
482 105 0
482 106 0
-482 -105 -106 0
483 105 0
483 107 0
-483 -105 -107 0
484 105 0
484 108 0
-484 -105 -108 0
485 105 0
485 109 0
-485 -105 -109 0
486 105 0
486 110 0
-486 -105 -110 0
487 105 0
487 111 0
-487 -105 -111 0
488 105 0
488 112 0
-488 -105 -112 0
489 106 0
489 107 0
-489 -106 -107 0
490 106 0
490 108 0
-490 -106 -108 0
491 106 0
491 109 0
-491 -106 -109 0
492 106 0
492 110 0
-492 -106 -110 0
493 106 0
493 111 0
-493 -106 -111 0
494 106 0
494 112 0
-494 -106 -112 0
495 107 0
495 108 0
-495 -107 -108 0
496 107 0
496 109 0
-496 -107 -109 0
497 107 0
497 110 0
-497 -107 -110 0
498 107 0
498 111 0
-498 -107 -111 0
499 107 0
499 112 0
-499 -107 -112 0
500 108 0
500 109 0
-500 -108 -109 0
501 108 0
501 110 0
-501 -108 -110 0
502 108 0
502 111 0
-502 -108 -111 0
503 108 0
503 112 0
-503 -108 -112 0
504 109 0
504 110 0
-504 -109 -110 0
505 109 0
505 111 0
-505 -109 -111 0
506 109 0
506 112 0
-506 -109 -112 0
507 110 0
507 111 0
-507 -110 -111 0
508 110 0
508 112 0
-508 -110 -112 0
509 111 0
509 112 0
-509 -111 -112 0
510 113 0
510 114 0
-510 -113 -114 0
511 113 0
511 115 0
-511 -113 -115 0
512 113 0
512 116 0
-512 -113 -116 0
513 113 0
513 117 0
-513 -113 -117 0
514 113 0
514 118 0
-514 -113 -118 0
515 113 0
515 119 0
-515 -113 -119 0
516 113 0
516 120 0
-516 -113 -120 0
517 113 0
517 121 0
-517 -113 -121 0
518 113 0
518 122 0
-518 -113 -122 0
519 114 0
519 115 0
-519 -114 -115 0
520 114 0
520 116 0
-520 -114 -116 0
521 114 0
521 117 0
-521 -114 -117 0
522 114 0
522 118 0
-522 -114 -118 0
523 114 0
523 119 0
-523 -114 -119 0
524 114 0
524 120 0
-524 -114 -120 0
525 114 0
525 121 0
-525 -114 -121 0
526 114 0
526 122 0
-526 -114 -122 0
527 115 0
527 116 0
-527 -115 -116 0
528 115 0
528 117 0
-528 -115 -117 0
529 115 0
529 118 0
-529 -115 -118 0
530 115 0
530 119 0
-530 -115 -119 0
531 115 0
531 120 0
-531 -115 -120 0
532 115 0
532 121 0
-532 -115 -121 0
533 115 0
533 122 0
-533 -115 -122 0
534 116 0
534 117 0
-534 -116 -117 0
535 116 0
535 118 0
-535 -116 -118 0
536 116 0
536 119 0
-536 -116 -119 0
537 116 0
537 120 0
-537 -116 -120 0
538 116 0
538 121 0
-538 -116 -121 0
539 116 0
539 122 0
-539 -116 -122 0
540 117 0
540 118 0
-540 -117 -118 0
541 117 0
541 119 0
-541 -117 -119 0
542 117 0
542 120 0
-542 -117 -120 0
543 117 0
543 121 0
-543 -117 -121 0
544 117 0
544 122 0
-544 -117 -122 0
545 118 0
545 119 0
-545 -118 -119 0
546 118 0
546 120 0
-546 -118 -120 0
547 118 0
547 121 0
-547 -118 -121 0
548 118 0
548 122 0
-548 -118 -122 0
549 119 0
549 120 0
-549 -119 -120 0
550 119 0
550 121 0
-550 -119 -121 0
551 119 0
551 122 0
-551 -119 -122 0
552 120 0
552 121 0
-552 -120 -121 0
553 120 0
553 122 0
-553 -120 -122 0
554 121 0
554 122 0
-554 -121 -122 0
-555 140 0
-555 141 0
-555 142 0
-555 143 0
-555 144 0
-555 145 0
-555 146 0
-555 147 0
-555 148 0
-555 149 0
-555 150 0
-555 151 0
-555 152 0
-555 153 0
-555 154 0
-555 155 0
-555 156 0
-555 157 0
-555 158 0
-555 159 0
-555 160 0
-555 161 0
-555 162 0
-555 163 0
-555 164 0
-555 165 0
-555 166 0
-555 167 0
-555 168 0
-555 169 0
-555 170 0
-555 171 0
-555 172 0
-555 173 0
-555 174 0
-555 175 0
-555 176 0
-555 177 0
-555 178 0
-555 179 0
-555 180 0
-555 181 0
-555 182 0
-555 183 0
-555 184 0
-555 185 0
-555 186 0
-555 187 0
-555 188 0
-555 189 0
-555 190 0
-555 191 0
-555 192 0
-555 193 0
-555 194 0
-555 195 0
-555 196 0
-555 197 0
-555 198 0
-555 199 0
-555 200 0
-555 201 0
-555 202 0
-555 203 0
-555 204 0
-555 205 0
-555 206 0
-555 207 0
-555 208 0
-555 209 0
-555 210 0
-555 211 0
-555 212 0
-555 213 0
-555 214 0
-555 215 0
-555 216 0
-555 217 0
-555 218 0
-555 219 0
-555 220 0
-555 221 0
-555 222 0
-555 223 0
-555 224 0
-555 225 0
-555 226 0
-555 227 0
-555 228 0
-555 229 0
-555 230 0
-555 231 0
-555 232 0
-555 233 0
-555 234 0
-555 235 0
-555 236 0
-555 237 0
-555 238 0
-555 239 0
-555 240 0
-555 241 0
-555 242 0
-555 243 0
-555 244 0
-555 245 0
-555 246 0
-555 247 0
-555 248 0
-555 249 0
-555 250 0
-555 251 0
-555 252 0
-555 253 0
-555 254 0
-555 255 0
-555 256 0
-555 257 0
-555 258 0
-555 259 0
-555 260 0
-555 261 0
-555 262 0
-555 263 0
-555 264 0
-555 265 0
-555 266 0
-555 267 0
-555 268 0
-555 269 0
-555 270 0
-555 271 0
-555 272 0
-555 273 0
-555 274 0
-555 275 0
-555 276 0
-555 277 0
-555 278 0
-555 279 0
-555 280 0
-555 281 0
-555 282 0
-555 283 0
-555 284 0
-555 285 0
-555 286 0
-555 287 0
-555 288 0
-555 289 0
-555 290 0
-555 291 0
-555 292 0
-555 293 0
-555 294 0
-555 295 0
-555 296 0
-555 297 0
-555 298 0
-555 299 0
-555 300 0
-555 301 0
-555 302 0
-555 303 0
-555 304 0
-555 305 0
-555 306 0
-555 307 0
-555 308 0
-555 309 0
-555 310 0
-555 311 0
-555 312 0
-555 313 0
-555 314 0
-555 315 0
-555 316 0
-555 317 0
-555 318 0
-555 319 0
-555 320 0
-555 321 0
-555 322 0
-555 323 0
-555 324 0
-555 325 0
-555 326 0
-555 327 0
-555 328 0
-555 329 0
-555 330 0
-555 331 0
-555 332 0
-555 333 0
-555 334 0
-555 335 0
-555 336 0
-555 337 0
-555 338 0
-555 339 0
-555 340 0
-555 341 0
-555 342 0
-555 343 0
-555 344 0
-555 345 0
-555 346 0
-555 347 0
-555 348 0
-555 349 0
-555 350 0
-555 351 0
-555 352 0
-555 353 0
-555 354 0
-555 355 0
-555 356 0
-555 357 0
-555 358 0
-555 359 0
-555 360 0
-555 361 0
-555 362 0
-555 363 0
-555 364 0
-555 365 0
-555 366 0
-555 367 0
-555 368 0
-555 369 0
-555 370 0
-555 371 0
-555 372 0
-555 373 0
-555 374 0
-555 375 0
-555 376 0
-555 377 0
-555 378 0
-555 379 0
-555 380 0
-555 381 0
-555 382 0
-555 383 0
-555 384 0
-555 385 0
-555 386 0
-555 387 0
-555 388 0
-555 389 0
-555 390 0
-555 391 0
-555 392 0
-555 393 0
-555 394 0
-555 395 0
-555 396 0
-555 397 0
-555 398 0
-555 399 0
-555 400 0
-555 401 0
-555 402 0
-555 403 0
-555 404 0
-555 405 0
-555 406 0
-555 407 0
-555 408 0
-555 409 0
-555 410 0
-555 411 0
-555 412 0
-555 413 0
-555 414 0
-555 415 0
-555 416 0
-555 417 0
-555 418 0
-555 419 0
-555 420 0
-555 421 0
-555 422 0
-555 423 0
-555 424 0
-555 425 0
-555 426 0
-555 427 0
-555 428 0
-555 429 0
-555 430 0
-555 431 0
-555 432 0
-555 433 0
-555 434 0
-555 435 0
-555 436 0
-555 437 0
-555 438 0
-555 439 0
-555 440 0
-555 441 0
-555 442 0
-555 443 0
-555 444 0
-555 445 0
-555 446 0
-555 447 0
-555 448 0
-555 449 0
-555 450 0
-555 451 0
-555 452 0
-555 453 0
-555 454 0
-555 455 0
-555 456 0
-555 457 0
-555 458 0
-555 459 0
-555 460 0
-555 461 0
-555 462 0
-555 463 0
-555 464 0
-555 465 0
-555 466 0
-555 467 0
-555 468 0
-555 469 0
-555 470 0
-555 471 0
-555 472 0
-555 473 0
-555 474 0
-555 475 0
-555 476 0
-555 477 0
-555 478 0
-555 479 0
-555 480 0
-555 481 0
-555 482 0
-555 483 0
-555 484 0
-555 485 0
-555 486 0
-555 487 0
-555 488 0
-555 489 0
-555 490 0
-555 491 0
-555 492 0
-555 493 0
-555 494 0
-555 495 0
-555 496 0
-555 497 0
-555 498 0
-555 499 0
-555 500 0
-555 501 0
-555 502 0
-555 503 0
-555 504 0
-555 505 0
-555 506 0
-555 507 0
-555 508 0
-555 509 0
-555 510 0
-555 511 0
-555 512 0
-555 513 0
-555 514 0
-555 515 0
-555 516 0
-555 517 0
-555 518 0
-555 519 0
-555 520 0
-555 521 0
-555 522 0
-555 523 0
-555 524 0
-555 525 0
-555 526 0
-555 527 0
-555 528 0
-555 529 0
-555 530 0
-555 531 0
-555 532 0
-555 533 0
-555 534 0
-555 535 0
-555 536 0
-555 537 0
-555 538 0
-555 539 0
-555 540 0
-555 541 0
-555 542 0
-555 543 0
-555 544 0
-555 545 0
-555 546 0
-555 547 0
-555 548 0
-555 549 0
-555 550 0
-555 551 0
-555 552 0
-555 553 0
-555 554 0
555 -140 -141 -142 -143 -144 -145 -146 -147 -148 -149 -150 -151 -152 -153 -154 -155 -156 -157 -158 -159 -160 -161 -162 -163 -164 -165 -166 -167 -168 -169 -170 -171 -172 -173 -174 -175 -176 -177 -178 -179 -180 -181 -182 -183 -184 -185 -186 -187 -188 -189 -190 -191 -192 -193 -194 -195 -196 -197 -198 -199 -200 -201 -202 -203 -204 -205 -206 -207 -208 -209 -210 -211 -212 -213 -214 -215 -216 -217 -218 -219 -220 -221 -222 -223 -224 -225 -226 -227 -228 -229 -230 -231 -232 -233 -234 -235 -236 -237 -238 -239 -240 -241 -242 -243 -244 -245 -246 -247 -248 -249 -250 -251 -252 -253 -254 -255 -256 -257 -258 -259 -260 -261 -262 -263 -264 -265 -266 -267 -268 -269 -270 -271 -272 -273 -274 -275 -276 -277 -278 -279 -280 -281 -282 -283 -284 -285 -286 -287 -288 -289 -290 -291 -292 -293 -294 -295 -296 -297 -298 -299 -300 -301 -302 -303 -304 -305 -306 -307 -308 -309 -310 -311 -312 -313 -314 -315 -316 -317 -318 -319 -320 -321 -322 -323 -324 -325 -326 -327 -328 -329 -330 -331 -332 -333 -334 -335 -336 -337 -338 -339 -340 -341 -342 -343 -344 -345 -346 -347 -348 -349 -350 -351 -352 -353 -354 -355 -356 -357 -358 -359 -360 -361 -362 -363 -364 -365 -366 -367 -368 -369 -370 -371 -372 -373 -374 -375 -376 -377 -378 -379 -380 -381 -382 -383 -384 -385 -386 -387 -388 -389 -390 -391 -392 -393 -394 -395 -396 -397 -398 -399 -400 -401 -402 -403 -404 -405 -406 -407 -408 -409 -410 -411 -412 -413 -414 -415 -416 -417 -418 -419 -420 -421 -422 -423 -424 -425 -426 -427 -428 -429 -430 -431 -432 -433 -434 -435 -436 -437 -438 -439 -440 -441 -442 -443 -444 -445 -446 -447 -448 -449 -450 -451 -452 -453 -454 -455 -456 -457 -458 -459 -460 -461 -462 -463 -464 -465 -466 -467 -468 -469 -470 -471 -472 -473 -474 -475 -476 -477 -478 -479 -480 -481 -482 -483 -484 -485 -486 -487 -488 -489 -490 -491 -492 -493 -494 -495 -496 -497 -498 -499 -500 -501 -502 -503 -504 -505 -506 -507 -508 -509 -510 -511 -512 -513 -514 -515 -516 -517 -518 -519 -520 -521 -522 -523 -524 -525 -526 -527 -528 -529 -530 -531 -532 -533 -534 -535 -536 -537 -538 -539 -540 -541 -542 -543 -544 -545 -546 -547 -548 -549 -550 -551 -552 -553 -554 0
-555 0
